50
11828

218 739
855 882
38 569
297 253
580 980
112 611
636 878
708 624
765 666
266 803
359 14
849 321
232 351
678 894
114 128
54 429
625 881
404 303
310 621
185 75
969 221
925 394
746 481
816 299
189 563
274 364
549 302
522 960
152 884
867 266
726 657
396 413
454 206
736 485
987 43
551 365
932 921
537 651
773 917
443 225
841 704
842 665
172 535
720 264
667 568
818 372
341 969
692 833
6 857
95 556
